
Gurobi 13.0.2 (win64) logging started Thu Jul 23 06:17:50 2026

Set parameter LogFile to value "E:\codes\ExactEBRP\results\gf_cplex_equivalent_gurobi_replica_round28\runs\stage2__high_imbalance_seed5202__c3_replica__300s\external\native_logs\R.0.0_lp.gurobi.log"
Gurobi Optimizer version 13.0.2 build v13.0.2rc1 (win64 - Windows 10.0 (19045.2))

CPU model: 12th Gen Intel(R) Core(TM) i7-12700KF, instruction set [SSE2|AVX|AVX2]
Thread count: 12 physical cores, 20 logical processors, using up to 1 threads

Non-default parameters:
TimeLimit  256.9352866
MIPGap  0
MIPGapAbs  0
LogToConsole  0
Threads  1

Optimize a model with 11923 rows, 3380 columns and 67164 nonzeros (Min)
Model fingerprint: 0x962a31a2
Model has 21 linear objective coefficients
Coefficient statistics:
  Matrix range     [2e-02, 2e+04]
  Objective range  [2e-02, 1e+00]
  Bounds range     [2e-01, 9e+02]
  RHS range        [2e-01, 5e+04]

Presolve removed 1388 rows and 105 columns
Presolve time: 0.04s
Presolved: 10535 rows, 3276 columns, 58724 nonzeros

Iteration    Objective       Primal Inf.    Dual Inf.      Time
       0    7.4500451e-02   4.863141e+02   0.000000e+00      0s

Solved in 934 iterations and 0.07 seconds (0.16 work units)
Infeasible model

User-callback calls 1077, time in user-callback 0.00 sec
